p cnf 7230 17
-1436 1805 0
1168 1250 -1810 0
1165 1248 -1808 0
1162 1246 -1806 0
-1168 -1811 0
-1165 -1809 0
-1162 -1807 0
1810 1811 0
1808 1809 0
1806 1807 0
-1250 -1811 0
-1248 -1809 0
-1246 -1807 0
1804 -1805 0
-1258 -1813 0
-1171 -1813 0
-1804 1805 0
